AdminEmail	<replace>
AvailabilityZones	us-east-1a,us-east-1b,us-east-1c	
BastionInstanceType	t3.nano	
CloudFrontAcmCertificate -		
DatabaseCmk	 -	
DatabaseEncrpytedBoolean	true	
DatabaseInstanceType	db.r5.large	
DatabaseMasterPassword <replace>	
DatabaseMasterUsername	<replace>
DatabaseName    <replace>	
DataSubnet0Cidr	10.0.100.0/24	
DataSubnet1Cidr	10.0.101.0/24	
DataSubnet2Cidr	10.0.102.0/24	
DataSubnet3Cidr	10.0.103.0/24	
DataSubnet4Cidr	10.0.104.0/24	
DataSubnet5Cidr	10.0.105.0/24	
EC2KeyName  <replace>	
EfsAlarmsInstanceType	t3.nano	
EfsCmk	-	
EfsCreateAlarms	true	
EfsCriticalThreshold	60	
EfsEncrpytedBoolean	true	
EfsGrowth	0	
EfsGrowthInstanceType	r4.large	
EfsPerformanceMode	generalPurpose	
EfsWarningThreshold	180	
ElastiCacheNodeType	cache.r6g.large	
NumberOfAZs	3	
PHPIniOverride	https://s3.amazonaws.com/aws-refarch/wordpress/latest/bits/20-aws.ini	
PHPVersion	8.0	
PublicAlbAcmCertificate		
PublicSubnet0Cidr	10.0.200.0/24	
PublicSubnet1Cidr	10.0.201.0/24	
PublicSubnet2Cidr	10.0.202.0/24	
PublicSubnet3Cidr	10.0.203.0/24	
PublicSubnet4Cidr	10.0.204.0/24	
PublicSubnet5Cidr	10.0.205.0/24	
SshAccessCidr	0.0.0.0/0	
UseCloudFrontBoolean	false	
UseElastiCacheBoolean	true	
UseRoute53Boolean	true	
VpcCidr	10.0.0.0/16	
VpcTenancy	default	
WebAsgMax	4	
WebAsgMin	2	
WebInstanceType	t3.large	
WebSubnet0Cidr	10.0.0.0/22	
WebSubnet1Cidr	10.0.4.0/22	
WebSubnet2Cidr	10.0.8.0/22	
WebSubnet3Cidr	10.0.12.0/22	
WebSubnet4Cidr	10.0.16.0/22	
WebSubnet5Cidr	10.0.20.0/22	
WPAdminPassword <replace>	
WPAdminUsername	<replace>
WPDirectory	<replace>
WPDomainName	<replace>
WPLocale	en_GB	
WPTitle	This is a new WordPress site on Amazon Web Services	
WPVersion	latest
